10J3M/DAT/10J3MULX-20.dat
10 3
22.343 4.7268
25.1322 5.0132
34.159 5.8446
13.3663 3.656
28.5425 5.3425
45.0844 6.7145
44.5847 6.6772
43.9753 6.6314
20.2928 4.5048
25.3331 5.0332
18.0481