10J3M/SOL/10J3MULX-20.sol
solution status: optimal solution found
objective value:                     100.937766666667
x#1#2                                               1 	(obj:0)
x#2#1                                0.89514422168203 	(obj:0)
x#2#2                                0.10485577831797 	(obj:0)
x#3#1                                               1 	(obj:0)
x#4#2                               0.111289648524677 	(obj:0)
x#4#3                               0.888710351475323 	(obj:0)
x#5#1                                               1 	(obj:0)
x#6#2                               0.101014529321637 	(obj:0)
x#6#3                               0.898985470678363 	(obj:0)
x#7#2                                               1 	(obj:0)
x#8#1                               0.357912806928197 	(obj:0)
x#8#3                               0.642087193071803 	(obj:0)
x#9#3                                               1 	(obj:0)
x#10#2                                              1 	(obj:0)
z                                    100.937766666667 	(obj:1)
